num_features = 47;
num_usage_limits = 5;
num_plans = 4;
num_addons = 4;

features = ["publicRepositories","privateRepositories","githubActions","githubPackages","codeReviews","pullRequests","protectedBranches","codeOwners","draftPullRequests","multiplePullRequestsAssignees","multiplePullRequestsReviewers","scheduledReminders","automaticCodeReviewAssigment","collaboratorsForPublicRepositories","collaboratorsForPrivateRepositories","issues","projects","milestones","teamDiscussions","organizationAndTeamManagement","pagesAndWikis","repositoryInsights","multipleIssueAssignees","dependabotAlerts","publicSecretScanning","dependabotSecurityUpdates","requiredReviews","requiredStatusChecks","automatedCodeScanning","githubSecurityAdvisories","roleBasedAccessControl","required2FA","auditLog","auditLogAPI","githubConnect","singleSignOn","ldap","ipAllowList","githubApps","statusChecks","preReceiveHooks","communitySupport","standardSupport","premiumAndPremiumPlusSupport","phoneSupport","invoiceBilling","selfHostedDeployment"];
usage_limits = ["githubOnlyForPublicRepositoriesFreeTier","githubOnlyForPublicRepositoriesTeamTier","onlyForPublicRepositoriesEnterpriseAndOneTiers","githubActionsQuota","diskSpaceForGithubPackages"];
plans = ["FREE","TEAM","ENTERPRISE","ONE"];
addons = ["premiumSupport","enterpriseServer","enterpriseCloud","oneEnterpriseCloud"];

plans_prices = [0,4,21,210];
addons_prices = [100,100,100,100];

linked_features = array2d(USAGE_LIMITS, FEATURES, [
    % githubOnlyForPublicRepositoriesFreeTier
    0,0,0,0,0,0,1,1,1,1,0,1,1,0,0,0,0,0,0,0,1,1,1,0,0,0,1,1,0,1,0,0,0,0,0,0,0,0,0,0,0,0,0,0,0,0,0,
    % githubOnlyForPublicRepositoriesTeamTier
    0,0,0,0,0,0,0,0,0,0,0,0,0,0,0,0,0,0,0,0,0,0,0,0,0,0,0,0,1,1,0,0,0,0,0,0,0,0,0,0,0,0,0,0,0,0,0,
    % onlyForPublicRepositoriesEnterpriseAndOneTiers
    0,0,0,0,0,0,0,0,0,0,0,0,0,0,0,0,0,0,0,0,0,0,0,0,0,0,0,0,1,0,0,0,0,0,0,0,0,0,0,0,0,0,0,0,0,0,0,
    % githubActionsQuota
    0,0,1,0,0,0,0,0,0,0,0,0,0,0,0,0,0,0,0,0,0,0,0,0,0,0,0,0,0,0,0,0,0,0,0,0,0,0,0,0,0,0,0,0,0,0,0,
    % diskSpaceForGithubPackages
    0,0,0,1,0,0,0,0,0,0,0,0,0,0,0,0,0,0,0,0,0,0,0,0,0,0,0,0,0,0,0,0,0,0,0,0,0,0,0,0,0,0,0,0,0,0,0
]);

plans_features = array2d(PLANS, FEATURES, [
    % FREE
    1,1,1,1,1,1,1,1,1,1,1,1,1,1,1,1,1,1,1,1,1,1,1,1,1,1,1,1,1,1,1,1,1,0,0,0,0,0,1,1,0,1,0,0,0,1,0,
    % TEAM
    1,1,1,1,1,1,1,1,1,1,1,1,1,1,1,1,1,1,1,1,1,1,1,1,1,1,1,1,1,1,1,1,1,0,0,0,0,0,1,1,0,1,1,0,0,1,0,
    % ENTERPRISE
    1,1,1,1,1,1,1,1,1,1,1,1,1,1,1,1,1,1,1,1,1,1,1,1,1,1,1,1,1,1,1,1,1,1,1,1,1,0,1,1,0,1,1,0,0,1,0,
    % ONE
    1,1,1,1,1,1,1,1,1,1,1,1,1,1,1,1,1,1,1,1,1,1,1,1,1,1,1,1,1,1,1,1,1,1,1,1,1,0,1,1,0,1,1,1,0,1,0
]);
plans_usage_limits = array2d(PLANS, USAGE_LIMITS, [
    % FREE
    1,0,0,2000,0.5,
    % TEAM
    0,1,0,3000,2,
    % ENTERPRISE
    0,0,1,50000,50,
    % ONE
    0,0,1,50000,50
]);

addons_features = array2d(ADDONS, FEATURES, [
    % premiumSupport
    0,0,0,0,0,0,0,0,0,0,0,0,0,0,0,0,0,0,0,0,0,0,0,0,0,0,0,0,0,0,0,0,0,0,0,0,0,0,0,0,0,0,0,1,1,0,0,
    % enterpriseServer
    0,0,0,0,0,0,0,0,0,0,0,0,0,0,0,0,0,0,0,0,0,0,0,0,0,0,0,0,0,0,0,0,0,0,0,0,0,0,0,0,1,0,0,0,0,0,1,
    % enterpriseCloud
    0,0,0,0,0,0,0,0,0,0,0,0,0,0,0,0,0,0,0,0,0,0,0,0,1,1,0,0,0,1,0,0,0,0,0,0,0,1,0,0,0,0,0,0,0,0,0,
    % oneEnterpriseCloud
    0,0,0,0,0,0,0,0,0,0,0,0,0,0,0,0,0,0,0,0,0,0,0,0,1,1,0,0,0,0,0,0,0,0,0,0,0,1,0,0,0,0,0,0,0,0,0
]);
addons_usage_limits = array2d(ADDONS, USAGE_LIMITS, [
    % premiumSupport
    0,0,0,0,0,
    % enterpriseServer
    0,0,0,0,0,
    % enterpriseCloud
    0,0,0,0,0,
    % oneEnterpriseCloud
    0,0,0,0,0
]);
addons_usage_limits_extensions = array2d(ADDONS, USAGE_LIMITS, [
    % premiumSupport
    0,0,0,0,0,
    % enterpriseServer
    0,0,0,0,0,
    % enterpriseCloud
    0,0,0,0,0,
    % oneEnterpriseCloud
    0,0,0,0,0
]);
addons_available_for = array2d(ADDONS, PLANS, [
    % premiumSupport
    0,0,1,0,
    % enterpriseServer
    0,0,1,1,
    % enterpriseCloud
    0,0,1,0,
    % oneEnterpriseCloud
    0,0,0,1
]);
addons_depends_on = array2d(ADDONS, ADDONS, [
    % premiumSupport
    0,0,0,0,
    % enterpriseServer
    0,0,0,0,
    % enterpriseCloud
    0,0,0,0,
    % oneEnterpriseCloud
    0,0,0,0
]);
